language ESSENCE' 1.0
$ minion Nodes: 1
$ minion TotalTime: 0.000456
$ Savile Row TotalTime: 0.194
letting y_tuple1_tuple2 be [[[12, 13;int(1,2)], 
[12, 13;int(1,2)];int(1,2)], 
[[12, 13;int(1,2)], 
[12, 13;int(1,2)];int(1,2)];int(1,2)]
letting y_tuple1_tuple1 be [[[10, 11;int(1,2)], 
[10, 11;int(1,2)];int(1,2)], 
[[10, 11;int(1,2)], 
[10, 11;int(1,2)];int(1,2)];int(1,2)]
